instances/shortest_path/discrete_knapsack_uncertainty/nohadani_3_6.kp
27299
94

[12.238758476562232 11.271676843744261 14.65701694960427 14.186054919644452 10.757464402532571 3.234308088688878]

[94 11 49 14 35 56]
